42	0

0	3	2	3	5
8	2	7	8
3	3	4	6	7
7	1	8
5	2	7	8
7	1	8
5	2	9	10
8	2	9	10
4	1	11
10	1	12
5	2	12	13
8	1	14
10	1	14
1	2	15	17
4	2	16	18
7	2	20	21
9	1	18
1	1	19
9	2	20	21
10	1	24
4	2	22	23
4	2	24	25
2	2	24	25
8	2	26	28
10	2	26	28
2	1	27
4	2	29	32
6	2	29	32
6	1	30
1	2	31	34
6	1	33
10	2	33	34
4	2	35	37
9	2	36	37
6	1	36
3	2	38	39
6	2	38	39
9	1	40
7	1	40
5	1	41
10	1	42
0	0
